\ Model initialLPModel
\ LP format - for model browsing. Use MPS format to capture full model detail.
Maximize
  0.1 C0 + 0.1 C1 + 0.1 C2 + 0.1 C3 + 0.1 C4 + 0.1 C5 + 0.1 C6 + 0.1 C7
   + 0.1 C8 + 0.1 C9 - 0.1 C10 - 0.1 C11 - 0.1 C12 - 0.1 C13 - 0.1 C14
   - 0.1 C15 - 0.1 C16 - 0.1 C17 - 0.1 C18 - 0.1 C19
Subject To
 R0: C20 + C21 + C22 + C23 + C24 + C25 + C26 + C27 + C28 + C29 + C30 + C31
   + C32 + C33 + C34 + C35 + C36 + C37 + C38 + C39 + C40 + C41 + C42 + C43
   + C44 + C45 + C46 + C47 + C48 + C49 + C50 + C51 + C52 + C53 + C54 + C55
   + C56 + C57 + C58 + C59 = 2
 R1: 40 C0 - C20 - C21 - C24 - C25 - C28 - C29 - C32 - C33 - C36 - C37
   - C40 - C41 - C44 - C45 - C48 - C49 - C52 - C53 - C56 - C57 <= 38
 R2: - 40 C0 + C20 + C21 + C24 + C25 + C28 + C29 + C32 + C33 + C36 + C37
   + C40 + C41 + C44 + C45 + C48 + C49 + C52 + C53 + C56 + C57 <= 1
 R3: 40 C1 - C20 - C21 - C26 - C27 - C30 - C31 - C34 - C35 - C36 - C37
   - C42 - C43 - C46 - C47 - C49 - C50 - C52 - C53 - C58 - C59 <= 38
 R4: - 40 C1 + C20 + C21 + C26 + C27 + C30 + C31 + C34 + C35 + C36 + C37
   + C42 + C43 + C46 + C47 + C49 + C50 + C52 + C53 + C58 + C59 <= 1
 R5: 40 C2 - C20 - C21 - C26 - C27 - C30 - C31 - C34 - C35 - C36 - C37
   - C41 - C42 - C45 - C46 - C49 - C50 - C52 - C53 - C57 - C58 <= 38
 R6: - 40 C2 + C20 + C21 + C26 + C27 + C30 + C31 + C34 + C35 + C36 + C37
   + C41 + C42 + C45 + C46 + C49 + C50 + C52 + C53 + C57 + C58 <= 1
 R7: 40 C3 - C20 - C21 - C25 - C26 - C28 - C29 - C32 - C33 - C36 - C37
   - C41 - C42 - C45 - C46 - C49 - C50 - C52 - C53 - C57 - C58 <= 38
 R8: - 40 C3 + C20 + C21 + C25 + C26 + C28 + C29 + C32 + C33 + C36 + C37
   + C41 + C42 + C45 + C46 + C49 + C50 + C52 + C53 + C57 + C58 <= 1
 R9: 40 C4 - C20 - C21 - C26 - C27 - C30 - C31 - C34 - C35 - C36 - C37
   - C41 - C42 - C45 - C46 - C48 - C49 - C52 - C53 - C57 - C58 <= 38
 R10: - 40 C4 + C20 + C21 + C26 + C27 + C30 + C31 + C34 + C35 + C36 + C37
   + C41 + C42 + C45 + C46 + C48 + C49 + C52 + C53 + C57 + C58 <= 1
 R11: 40 C5 - C20 - C21 - C25 - C26 - C29 - C30 - C33 - C34 - C36 - C37
   - C42 - C43 - C46 - C47 - C48 - C49 - C52 - C53 - C58 - C59 <= 38
 R12: - 40 C5 + C20 + C21 + C25 + C26 + C29 + C30 + C33 + C34 + C36 + C37
   + C42 + C43 + C46 + C47 + C48 + C49 + C52 + C53 + C58 + C59 <= 1
 R13: 40 C6 - C20 - C21 - C26 - C27 - C30 - C31 - C34 - C35 - C36 - C37
   - C40 - C41 - C44 - C45 - C48 - C49 - C52 - C53 - C56 - C57 <= 38
 R14: - 40 C6 + C20 + C21 + C26 + C27 + C30 + C31 + C34 + C35 + C36 + C37
   + C40 + C41 + C44 + C45 + C48 + C49 + C52 + C53 + C56 + C57 <= 1
 R15: 40 C7 - C20 - C21 - C26 - C27 - C30 - C31 - C34 - C35 - C36 - C37
   - C40 - C41 - C44 - C45 - C48 - C49 - C52 - C53 - C56 - C57 <= 38
 R16: - 40 C7 + C20 + C21 + C26 + C27 + C30 + C31 + C34 + C35 + C36 + C37
   + C40 + C41 + C44 + C45 + C48 + C49 + C52 + C53 + C56 + C57 <= 1
 R17: 40 C8 - C20 - C21 - C26 - C27 - C30 - C31 - C34 - C35 - C36 - C37
   - C41 - C42 - C45 - C46 - C49 - C50 - C52 - C53 - C57 - C58 <= 38
 R18: - 40 C8 + C20 + C21 + C26 + C27 + C30 + C31 + C34 + C35 + C36 + C37
   + C41 + C42 + C45 + C46 + C49 + C50 + C52 + C53 + C57 + C58 <= 1
 R19: 40 C9 - C20 - C21 - C26 - C27 - C30 - C31 - C34 - C35 - C36 - C37
   - C41 - C42 - C45 - C46 - C49 - C50 - C52 - C53 - C57 - C58 <= 38
 R20: - 40 C9 + C20 + C21 + C26 + C27 + C30 + C31 + C34 + C35 + C36 + C37
   + C41 + C42 + C45 + C46 + C49 + C50 + C52 + C53 + C57 + C58 <= 1
 R21: 40 C10 - C20 - C21 - C25 - C26 - C29 - C30 - C33 - C34 - C36 - C37
   - C41 - C42 - C45 - C46 - C49 - C50 - C52 - C53 - C57 - C58 <= 38
 R22: - 40 C10 + C20 + C21 + C25 + C26 + C29 + C30 + C33 + C34 + C36 + C37
   + C41 + C42 + C45 + C46 + C49 + C50 + C52 + C53 + C57 + C58 <= 1
 R23: 40 C11 - C20 - C21 - C25 - C26 - C29 - C30 - C33 - C34 - C36 - C37
   - C42 - C43 - C46 - C47 - C48 - C49 - C52 - C53 - C58 - C59 <= 38
 R24: - 40 C11 + C20 + C21 + C25 + C26 + C29 + C30 + C33 + C34 + C36 + C37
   + C42 + C43 + C46 + C47 + C48 + C49 + C52 + C53 + C58 + C59 <= 1
 R25: 40 C12 - C20 - C21 - C25 - C26 - C29 - C30 - C33 - C34 - C37 - C38
   - C41 - C42 - C45 - C46 - C49 - C50 - C52 - C53 - C57 - C58 <= 38
 R26: - 40 C12 + C20 + C21 + C25 + C26 + C29 + C30 + C33 + C34 + C37 + C38
   + C41 + C42 + C45 + C46 + C49 + C50 + C52 + C53 + C57 + C58 <= 1
 R27: 40 C13 - C20 - C21 - C25 - C26 - C28 - C29 - C32 - C33 - C36 - C37
   - C42 - C43 - C45 - C46 - C49 - C50 - C52 - C53 - C58 - C59 <= 38
 R28: - 40 C13 + C20 + C21 + C25 + C26 + C28 + C29 + C32 + C33 + C36 + C37
   + C42 + C43 + C45 + C46 + C49 + C50 + C52 + C53 + C58 + C59 <= 1
 R29: 40 C14 - C20 - C21 - C26 - C27 - C30 - C31 - C34 - C35 - C36 - C37
   - C41 - C42 - C45 - C46 - C48 - C49 - C52 - C53 - C57 - C58 <= 38
 R30: - 40 C14 + C20 + C21 + C26 + C27 + C30 + C31 + C34 + C35 + C36 + C37
   + C41 + C42 + C45 + C46 + C48 + C49 + C52 + C53 + C57 + C58 <= 1
 R31: 40 C15 - C20 - C21 - C26 - C27 - C30 - C31 - C34 - C35 - C36 - C37
   - C41 - C42 - C45 - C46 - C49 - C50 - C52 - C53 - C57 - C58 <= 38
 R32: - 40 C15 + C20 + C21 + C26 + C27 + C30 + C31 + C34 + C35 + C36 + C37
   + C41 + C42 + C45 + C46 + C49 + C50 + C52 + C53 + C57 + C58 <= 1
 R33: 40 C16 - C20 - C21 - C24 - C25 - C28 - C29 - C33 - C34 - C36 - C37
   - C42 - C43 - C46 - C47 - C49 - C50 - C52 - C53 - C58 - C59 <= 38
 R34: - 40 C16 + C20 + C21 + C24 + C25 + C28 + C29 + C33 + C34 + C36 + C37
   + C42 + C43 + C46 + C47 + C49 + C50 + C52 + C53 + C58 + C59 <= 1
 R35: 40 C17 - C20 - C21 - C26 - C27 - C30 - C31 - C34 - C35 - C37 - C38
   - C40 - C41 - C45 - C46 - C48 - C49 - C53 - C54 - C57 - C58 <= 38
 R36: - 40 C17 + C20 + C21 + C26 + C27 + C30 + C31 + C34 + C35 + C37 + C38
   + C40 + C41 + C45 + C46 + C48 + C49 + C53 + C54 + C57 + C58 <= 1
 R37: 40 C18 - C20 - C21 - C25 - C26 - C29 - C30 - C33 - C34 - C36 - C37
   - C41 - C42 - C45 - C46 - C49 - C50 - C52 - C53 - C57 - C58 <= 38
 R38: - 40 C18 + C20 + C21 + C25 + C26 + C29 + C30 + C33 + C34 + C36 + C37
   + C41 + C42 + C45 + C46 + C49 + C50 + C52 + C53 + C57 + C58 <= 1
 R39: 40 C19 - C20 - C21 - C25 - C26 - C29 - C30 - C34 - C35 - C37 - C38
   - C40 - C41 - C45 - C46 - C48 - C49 - C53 - C54 - C57 - C58 <= 38
 R40: - 40 C19 + C20 + C21 + C25 + C26 + C29 + C30 + C34 + C35 + C37 + C38
   + C40 + C41 + C45 + C46 + C48 + C49 + C53 + C54 + C57 + C58 <= 1
 R41: C31 + C36 <= 0.05
 R42: C31 + C36 <= 0.05
 R43: C31 + C36 <= 0.05
 R44: C31 + C36 <= 0.05
 R45: C27 + C52 <= 0.05
 R46: C31 + C36 <= 0.05
 R47: C31 + C36 <= 0.05
 R48: C27 + C52 <= 0.05
 R49: C20 + C35 <= 0.05
 R50: C31 + C36 <= 0.05
 R51: C31 + C36 <= 0.05
 R52: C27 + C52 <= 0.05
 R53: C20 + C35 <= 0.05
 R54: C21 + C56 <= 0.05
 R55: C31 + C36 <= 0.05
 R56: C31 + C36 <= 0.05
 R57: C27 + C52 <= 0.05
 R58: C20 + C35 <= 0.05
 R59: C21 + C56 <= 0.05
 R60: C37 + C44 <= 0.05
 R61: C31 + C36 <= 0.05
 R62: C31 + C36 <= 0.05
 R63: C27 + C52 <= 0.05
 R64: C20 + C35 <= 0.05
 R65: C21 + C56 <= 0.05
 R66: C37 + C44 <= 0.05
 R67: C41 + C49 <= 0.05
 R68: C31 + C36 <= 0.05
 R69: C31 + C36 <= 0.05
 R70: C27 + C52 <= 0.05
 R71: C20 + C35 <= 0.05
 R72: C21 + C56 <= 0.05
 R73: C37 + C44 <= 0.05
 R74: C41 + C49 <= 0.05
 R75: C53 + C57 <= 0.05
 R76: C31 + C36 <= 0.05
 R77: C31 + C36 <= 0.05
 R78: C27 + C52 <= 0.05
 R79: C20 + C35 <= 0.05
 R80: C21 + C56 <= 0.05
 R81: C37 + C44 <= 0.05
 R82: C41 + C49 <= 0.05
 R83: C53 + C57 <= 0.05
 R84: C26 + C32 <= 0.05
 R85: C31 + C36 <= 0.05
 R86: C31 + C36 <= 0.05
 R87: C27 + C52 <= 0.05
 R88: C20 + C35 <= 0.05
 R89: C21 + C56 <= 0.05
 R90: C37 + C44 <= 0.05
 R91: C41 + C49 <= 0.05
 R92: C53 + C57 <= 0.05
 R93: C26 + C32 <= 0.05
 R94: C48 + C50 <= 0.05
 R95: C31 + C36 <= 0.05
 R96: C31 + C36 <= 0.05
 R97: C27 + C52 <= 0.05
 R98: C20 + C35 <= 0.05
 R99: C21 + C56 <= 0.05
 R100: C37 + C44 <= 0.05
 R101: C41 + C49 <= 0.05
 R102: C53 + C57 <= 0.05
 R103: C26 + C32 <= 0.05
 R104: C48 + C50 <= 0.05
 R105: C28 + C30 <= 0.05
 R106: C31 + C36 <= 0.05
 R107: C31 + C36 <= 0.05
 R108: C27 + C52 <= 0.05
 R109: C20 + C35 <= 0.05
 R110: C21 + C56 <= 0.05
 R111: C37 + C44 <= 0.05
 R112: C41 + C49 <= 0.05
 R113: C53 + C57 <= 0.05
 R114: C26 + C32 <= 0.05
 R115: C48 + C50 <= 0.05
 R116: C28 + C30 <= 0.05
 R117: C40 + C42 <= 0.05
 R118: C31 + C36 <= 0.05
 R119: C31 + C36 <= 0.05
 R120: C27 + C52 <= 0.05
 R121: C20 + C35 <= 0.05
 R122: C21 + C56 <= 0.05
 R123: C37 + C44 <= 0.05
 R124: C41 + C49 <= 0.05
 R125: C53 + C57 <= 0.05
 R126: C26 + C32 <= 0.05
 R127: C48 + C50 <= 0.05
 R128: C28 + C30 <= 0.05
 R129: C40 + C42 <= 0.05
 R130: C45 + C47 <= 0.05
 R131: C31 + C36 <= 0.05
 R132: C31 + C36 <= 0.05
 R133: C27 + C52 <= 0.05
 R134: C20 + C35 <= 0.05
 R135: C21 + C56 <= 0.05
 R136: C37 + C44 <= 0.05
 R137: C41 + C49 <= 0.05
 R138: C53 + C57 <= 0.05
 R139: C26 + C32 <= 0.05
 R140: C48 + C50 <= 0.05
 R141: C28 + C30 <= 0.05
 R142: C40 + C42 <= 0.05
 R143: C45 + C47 <= 0.05
 R144: C24 + C34 <= 0.05
 R145: C31 + C36 <= 0.05
 R146: C31 + C36 <= 0.05
 R147: C27 + C52 <= 0.05
 R148: C20 + C35 <= 0.05
 R149: C21 + C56 <= 0.05
 R150: C37 + C44 <= 0.05
 R151: C41 + C49 <= 0.05
 R152: C53 + C57 <= 0.05
 R153: C26 + C32 <= 0.05
 R154: C48 + C50 <= 0.05
 R155: C28 + C30 <= 0.05
 R156: C40 + C42 <= 0.05
 R157: C45 + C47 <= 0.05
 R158: C24 + C34 <= 0.05
 R159: C22 + C58 <= 0.05
 R160: C31 + C36 <= 0.05
 R161: C31 + C36 <= 0.05
 R162: C27 + C52 <= 0.05
 R163: C20 + C35 <= 0.05
 R164: C21 + C56 <= 0.05
 R165: C37 + C44 <= 0.05
 R166: C41 + C49 <= 0.05
 R167: C53 + C57 <= 0.05
 R168: C26 + C32 <= 0.05
 R169: C48 + C50 <= 0.05
 R170: C28 + C30 <= 0.05
 R171: C40 + C42 <= 0.05
 R172: C45 + C47 <= 0.05
 R173: C24 + C34 <= 0.05
 R174: C22 + C58 <= 0.05
 R175: C23 + C46 <= 0.05
 R176: C31 + C36 <= 0.05
 R177: C31 + C36 <= 0.05
 R178: C27 + C52 <= 0.05
 R179: C20 + C35 <= 0.05
 R180: C21 + C56 <= 0.05
 R181: C37 + C44 <= 0.05
 R182: C41 + C49 <= 0.05
 R183: C53 + C57 <= 0.05
 R184: C26 + C32 <= 0.05
 R185: C48 + C50 <= 0.05
 R186: C28 + C30 <= 0.05
 R187: C40 + C42 <= 0.05
 R188: C45 + C47 <= 0.05
 R189: C24 + C34 <= 0.05
 R190: C22 + C58 <= 0.05
 R191: C23 + C46 <= 0.05
 R192: C33 + C51 <= 0.05
 R193: C31 + C36 <= 0.05
 R194: C31 + C36 <= 0.05
 R195: C27 + C52 <= 0.05
 R196: C20 + C35 <= 0.05
 R197: C21 + C56 <= 0.05
 R198: C37 + C44 <= 0.05
 R199: C41 + C49 <= 0.05
 R200: C53 + C57 <= 0.05
 R201: C26 + C32 <= 0.05
 R202: C48 + C50 <= 0.05
 R203: C28 + C30 <= 0.05
 R204: C40 + C42 <= 0.05
 R205: C45 + C47 <= 0.05
 R206: C24 + C34 <= 0.05
 R207: C22 + C58 <= 0.05
 R208: C23 + C46 <= 0.05
 R209: C33 + C51 <= 0.05
 R210: C25 + C39 <= 0.05
 R211: C31 + C36 <= 0.05
 R212: C31 + C36 <= 0.05
 R213: C27 + C52 <= 0.05
 R214: C20 + C35 <= 0.05
 R215: C21 + C56 <= 0.05
 R216: C37 + C44 <= 0.05
 R217: C41 + C49 <= 0.05
 R218: C53 + C57 <= 0.05
 R219: C26 + C32 <= 0.05
 R220: C48 + C50 <= 0.05
 R221: C28 + C30 <= 0.05
 R222: C40 + C42 <= 0.05
 R223: C45 + C47 <= 0.05
 R224: C24 + C34 <= 0.05
 R225: C22 + C58 <= 0.05
 R226: C23 + C46 <= 0.05
 R227: C33 + C51 <= 0.05
 R228: C25 + C39 <= 0.05
 R229: C29 + C55 <= 0.05
 R230: C31 + C36 <= 0.05
 R231: C31 + C36 <= 0.05
 R232: C27 + C52 <= 0.05
 R233: C20 + C35 <= 0.05
 R234: C21 + C56 <= 0.05
 R235: C37 + C44 <= 0.05
 R236: C41 + C49 <= 0.05
 R237: C53 + C57 <= 0.05
 R238: C26 + C32 <= 0.05
 R239: C48 + C50 <= 0.05
 R240: C28 + C30 <= 0.05
 R241: C40 + C42 <= 0.05
 R242: C45 + C47 <= 0.05
 R243: C24 + C34 <= 0.05
 R244: C22 + C58 <= 0.05
 R245: C23 + C46 <= 0.05
 R246: C33 + C51 <= 0.05
 R247: C25 + C39 <= 0.05
 R248: C29 + C55 <= 0.05
 R249: C54 + C59 <= 0.05
 R250: C31 + C36 <= 0.05
 R251: C31 + C36 <= 0.05
 R252: C27 + C52 <= 0.05
 R253: C20 + C35 <= 0.05
 R254: C21 + C56 <= 0.05
 R255: C37 + C44 <= 0.05
 R256: C41 + C49 <= 0.05
 R257: C53 + C57 <= 0.05
 R258: C26 + C32 <= 0.05
 R259: C48 + C50 <= 0.05
 R260: C28 + C30 <= 0.05
 R261: C40 + C42 <= 0.05
 R262: C45 + C47 <= 0.05
 R263: C24 + C34 <= 0.05
 R264: C22 + C58 <= 0.05
 R265: C23 + C46 <= 0.05
 R266: C33 + C51 <= 0.05
 R267: C25 + C39 <= 0.05
 R268: C29 + C55 <= 0.05
 R269: C54 + C59 <= 0.05
 R270: C38 + C43 <= 0.05
 R271: C31 + C36 <= 0.05
 R272: C31 + C36 <= 0.05
 R273: C27 + C52 <= 0.05
 R274: C20 + C35 <= 0.05
 R275: C21 + C56 <= 0.05
 R276: C37 + C44 <= 0.05
 R277: C41 + C49 <= 0.05
 R278: C53 + C57 <= 0.05
 R279: C26 + C32 <= 0.05
 R280: C48 + C50 <= 0.05
 R281: C28 + C30 <= 0.05
 R282: C40 + C42 <= 0.05
 R283: C45 + C47 <= 0.05
 R284: C24 + C34 <= 0.05
 R285: C22 + C58 <= 0.05
 R286: C23 + C46 <= 0.05
 R287: C33 + C51 <= 0.05
 R288: C25 + C39 <= 0.05
 R289: C29 + C55 <= 0.05
 R290: C54 + C59 <= 0.05
 R291: C38 + C43 <= 0.05
Bounds
 C0 <= 1
 C1 <= 1
 C2 <= 1
 C3 <= 1
 C4 <= 1
 C5 <= 1
 C6 <= 1
 C7 <= 1
 C8 <= 1
 C9 <= 1
 C10 <= 1
 C11 <= 1
 C12 <= 1
 C13 <= 1
 C14 <= 1
 C15 <= 1
 C16 <= 1
 C17 <= 1
 C18 <= 1
 C19 <= 1
 C20 <= 1
 C21 <= 1
 C22 <= 1
 C23 <= 1
 C24 <= 1
 C25 <= 1
 C26 <= 1
 C27 <= 1
 C28 <= 1
 C29 <= 1
 C30 <= 1
 C31 <= 1
 C32 <= 1
 C33 <= 1
 C34 <= 1
 C35 <= 1
 C36 <= 1
 C37 <= 1
 C38 <= 1
 C39 <= 1
 C40 <= 1
 C41 <= 1
 C42 <= 1
 C43 <= 1
 C44 <= 1
 C45 <= 1
 C46 <= 1
 C47 <= 1
 C48 <= 1
 C49 <= 1
 C50 <= 1
 C51 <= 1
 C52 <= 1
 C53 <= 1
 C54 <= 1
 C55 <= 1
 C56 <= 1
 C57 <= 1
 C58 <= 1
 C59 <= 1
End
